c description: Random 5-CNF over 15 variables and 15 clauses
c generator: CNFgen (0.9.0)
c copyright: (C) 2012-2020 Massimo Lauria <massimo.lauria@uniroma1.it>
c url: https://massimolauria.net/cnfgen
c
p cnf 15 15
1 -6 -8 -10 12 0
-2 -7 -8 -12 15 0
-3 5 -9 11 12 0
2 -3 4 -5 -8 0
2 -8 -11 12 -15 0
4 -8 10 -11 14 0
1 -2 4 9 13 0
3 -4 7 -10 12 0
3 4 7 9 -13 0
-2 -8 -10 -12 -14 0
2 4 -6 8 -9 0
3 8 11 12 -14 0
3 -5 -7 10 -12 0
-2 -7 10 13 -15 0
-1 -2 -5 12 -14 0